p cnf 61 212
-1 -16 0
-1 -37 0
-1 -42 0
-1 -50 0
-1 -55 0
-16 -37 0
-16 -42 0
-16 -50 0
-16 -55 0
-37 -42 0
-37 -50 0
-37 -55 0
-42 -50 0
-42 -55 0
-50 -55 0
-2 -9 0
-2 -17 0
-2 -23 0
-2 -27 0
-2 -32 0
-2 -43 0
-2 -51 0
-2 -56 0
-9 -17 0
-9 -23 0
-9 -27 0
-9 -32 0
-9 -43 0
-9 -51 0
-9 -56 0
-17 -23 0
-17 -27 0
-17 -32 0
-17 -43 0
-17 -51 0
-17 -56 0
-23 -27 0
-23 -32 0
-23 -43 0
-23 -51 0
-23 -56 0
-27 -32 0
-27 -43 0
-27 -51 0
-27 -56 0
-32 -43 0
-32 -51 0
-32 -56 0
-43 -51 0
-43 -56 0
-51 -56 0
-3 -10 0
-3 -18 0
-3 -28 0
-3 -33 0
-3 -44 0
-3 -52 0
-3 -57 0
-10 -18 0
-10 -28 0
-10 -33 0
-10 -44 0
-10 -52 0
-10 -57 0
-18 -28 0
-18 -33 0
-18 -44 0
-18 -52 0
-18 -57 0
-28 -33 0
-28 -44 0
-28 -52 0
-28 -57 0
-33 -44 0
-33 -52 0
-33 -57 0
-44 -52 0
-44 -57 0
-52 -57 0
-4 -11 0
-4 -19 0
-4 -34 0
-4 -38 0
-4 -45 0
-4 -58 0
-11 -19 0
-11 -34 0
-11 -38 0
-11 -45 0
-11 -58 0
-19 -34 0
-19 -38 0
-19 -45 0
-19 -58 0
-34 -38 0
-34 -45 0
-34 -58 0
-38 -45 0
-38 -58 0
-45 -58 0
-5 -12 0
-5 -20 0
-5 -24 0
-5 -29 0
-5 -35 0
-5 -39 0
-5 -46 0
-5 -53 0
-5 -59 0
-12 -20 0
-12 -24 0
-12 -29 0
-12 -35 0
-12 -39 0
-12 -46 0
-12 -53 0
-12 -59 0
-20 -24 0
-20 -29 0
-20 -35 0
-20 -39 0
-20 -46 0
-20 -53 0
-20 -59 0
-24 -29 0
-24 -35 0
-24 -39 0
-24 -46 0
-24 -53 0
-24 -59 0
-29 -35 0
-29 -39 0
-29 -46 0
-29 -53 0
-29 -59 0
-35 -39 0
-35 -46 0
-35 -53 0
-35 -59 0
-39 -46 0
-39 -53 0
-39 -59 0
-46 -53 0
-46 -59 0
-53 -59 0
-6 -13 0
-6 -21 0
-6 -25 0
-6 -30 0
-6 -40 0
-6 -47 0
-6 -54 0
-6 -60 0
-13 -21 0
-13 -25 0
-13 -30 0
-13 -40 0
-13 -47 0
-13 -54 0
-13 -60 0
-21 -25 0
-21 -30 0
-21 -40 0
-21 -47 0
-21 -54 0
-21 -60 0
-25 -30 0
-25 -40 0
-25 -47 0
-25 -54 0
-25 -60 0
-30 -40 0
-30 -47 0
-30 -54 0
-30 -60 0
-40 -47 0
-40 -54 0
-40 -60 0
-47 -54 0
-47 -60 0
-54 -60 0
-7 -14 0
-7 -41 0
-7 -48 0
-7 -61 0
-14 -41 0
-14 -48 0
-14 -61 0
-41 -48 0
-41 -61 0
-48 -61 0
-8 -15 0
-8 -22 0
-8 -26 0
-8 -31 0
-8 -36 0
-8 -49 0
-15 -22 0
-15 -26 0
-15 -31 0
-15 -36 0
-15 -49 0
-22 -26 0
-22 -31 0
-22 -36 0
-22 -49 0
-26 -31 0
-26 -36 0
-26 -49 0
-31 -36 0
-31 -49 0
-36 -49 0
